c colouring generated by benchmark framework
p edge 450 9757
v 1 3
v 2 9
v 3 10
v 4 4
v 5 7
v 6 6
v 7 6
v 8 1
v 9 7
v 10 12
v 11 6
v 12 1
v 13 7
v 14 11
v 15 12
v 16 7
v 17 2
v 18 11
v 19 0
v 20 4
v 21 2
v 22 6
v 23 0
v 24 12
v 25 2
v 26 3
v 27 8
v 28 0
v 29 0
v 30 12
v 31 2
v 32 9
v 33 1
v 34 4
v 35 7
v 36 6
v 37 8
v 38 10
v 39 11
v 40 10
v 41 2
v 42 8
v 43 1
v 44 0
v 45 3
v 46 3
v 47 2
v 48 11
v 49 1
v 50 12
v 51 2
v 52 8
v 53 0
v 54 4
v 55 7
v 56 6
v 57 8
v 58 1
v 59 10
v 60 5
v 61 7
v 62 5
v 63 0
v 64 0
v 65 2
v 66 2
v 67 6
v 68 11
v 69 4
v 70 12
v 71 7
v 72 10
v 73 4
v 74 4
v 75 9
v 76 9
v 77 8
v 78 4
v 79 11
v 80 12
v 81 3
v 82 6
v 83 1
v 84 10
v 85 3
v 86 9
v 87 6
v 88 1
v 89 10
v 90 4
v 91 9
v 92 8
v 93 1
v 94 0
v 95 12
v 96 3
v 97 6
v 98 0
v 99 4
v 100 12
v 101 9
v 102 8
v 103 5
v 104 11
v 105 2
v 106 7
v 107 5
v 108 1
v 109 10
v 110 7
v 111 2
v 112 6
v 113 10
v 114 4
v 115 4
v 116 3
v 117 8
v 118 11
v 119 4
v 120 11
v 121 2
v 122 3
v 123 1
v 124 11
v 125 2
v 126 8
v 127 5
v 128 1
v 129 11
v 130 2
v 131 9
v 132 1
v 133 0
v 134 0
v 135 12
v 136 3
v 137 1
v 138 0
v 139 11
v 140 12
v 141 3
v 142 8
v 143 0
v 144 11
v 145 3
v 146 8
v 147 6
v 148 1
v 149 11
v 150 12
v 151 6
v 152 9
v 153 10
v 154 0
v 155 6
v 156 5
v 157 6
v 158 10
v 159 0
v 160 12
v 161 2
v 162 8
v 163 10
v 164 0
v 165 12
v 166 12
v 167 5
v 168 10
v 169 11
v 170 3
v 171 9
v 172 2
v 173 10
v 174 12
v 175 1
v 176 7
v 177 8
v 178 0
v 179 10
v 180 12
v 181 3
v 182 8
v 183 10
v 184 0
v 185 12
v 186 3
v 187 9
v 188 4
v 189 0
v 190 7
v 191 9
v 192 8
v 193 4
v 194 11
v 195 12
v 196 7
v 197 8
v 198 0
v 199 0
v 200 2
v 201 6
v 202 8
v 203 10
v 204 12
v 205 4
v 206 3
v 207 8
v 208 0
v 209 4
v 210 12
v 211 5
v 212 8
v 213 5
v 214 4
v 215 12
v 216 2
v 217 3
v 218 2
v 219 2
v 220 7
v 221 6
v 222 6
v 223 10
v 224 11
v 225 7
v 226 3
v 227 11
v 228 1
v 229 4
v 230 7
v 231 7
v 232 1
v 233 8
v 234 4
v 235 5
v 236 8
v 237 6
v 238 1
v 239 4
v 240 12
v 241 9
v 242 7
v 243 4
v 244 0
v 245 2
v 246 5
v 247 10
v 248 11
v 249 7
v 250 12
v 251 7
v 252 9
v 253 1
v 254 1
v 255 12
v 256 12
v 257 3
v 258 0
v 259 11
v 260 12
v 261 6
v 262 6
v 263 10
v 264 12
v 265 12
v 266 12
v 267 8
v 268 10
v 269 4
v 270 12
v 271 9
v 272 8
v 273 10
v 274 0
v 275 12
v 276 9
v 277 8
v 278 5
v 279 4
v 280 7
v 281 6
v 282 8
v 283 0
v 284 12
v 285 3
v 286 7
v 287 3
v 288 1
v 289 10
v 290 4
v 291 2
v 292 8
v 293 1
v 294 4
v 295 4
v 296 3
v 297 9
v 298 4
v 299 4
v 300 12
v 301 2
v 302 3
v 303 0
v 304 4
v 305 3
v 306 5
v 307 3
v 308 1
v 309 10
v 310 3
v 311 9
v 312 8
v 313 0
v 314 0
v 315 11
v 316 9
v 317 5
v 318 0
v 319 11
v 320 12
v 321 7
v 322 8
v 323 0
v 324 11
v 325 9
v 326 3
v 327 6
v 328 11
v 329 4
v 330 5
v 331 7
v 332 9
v 333 10
v 334 11
v 335 7
v 336 5
v 337 6
v 338 11
v 339 0
v 340 12
v 341 2
v 342 9
v 343 5
v 344 4
v 345 12
v 346 6
v 347 8
v 348 10
v 349 11
v 350 6
v 351 7
v 352 2
v 353 1
v 354 4
v 355 2
v 356 12
v 357 6
v 358 0
v 359 12
v 360 9
v 361 9
v 362 5
v 363 1
v 364 0
v 365 7
v 366 5
v 367 6
v 368 1
v 369 0
v 370 12
v 371 6
v 372 6
v 373 0
v 374 11
v 375 11
v 376 7
v 377 2
v 378 10
v 379 12
v 380 4
v 381 9
v 382 8
v 383 9
v 384 4
v 385 4
v 386 6
v 387 9
v 388 10
v 389 10
v 390 12
v 391 6
v 392 8
v 393 5
v 394 11
v 395 12
v 396 2
v 397 5
v 398 10
v 399 12
v 400 6
v 401 6
v 402 6
v 403 1
v 404 4
v 405 2
v 406 6
v 407 3
v 408 10
v 409 4
v 410 10
v 411 3
v 412 8
v 413 8
v 414 11
v 415 4
v 416 3
v 417 8
v 418 4
v 419 4
v 420 12
v 421 7
v 422 9
v 423 4
v 424 0
v 425 2
v 426 6
v 427 8
v 428 0
v 429 0
v 430 12
v 431 9
v 432 5
v 433 1
v 434 0
v 435 9
v 436 7
v 437 5
v 438 8
v 439 7
v 440 12
v 441 5
v 442 6
v 443 1
v 444 4
v 445 12
v 446 7
v 447 8
v 448 10
v 449 10
v 450 3
